68 68
31 48
22 61
17 17
7 5
20 51
28 20
29 22
30 27
16 68
18 54
34 50
15 24
7 15
8 42
3 39
4 47
27 46
5 4
17 34
12 59
22 2
34 23
3 14
13 28
26 9
26 60
9 36
19 62
23 19
14 10
20 18
1 57
5 31
25 37
2 45
9 16
19 41
33 53
15 26
12 38
11 13
28 29
18 49
24 55
14 66
32 21
6 67
10 33
6 8
31 25
32 43
30 35
10 7
29 11
2 58
8 44
25 12
23 63
1 3
21 40
24 30
27 32
16 52
11 56
33 6
21 64
4 1
13 65
